16.42 0.21 3.58 28.16 0.1 4.33 24.91 0.29 2.44 23.68 0.25 4.32 13.39 0.29 2.86
24.85 0.23 2.45 15.03 0.12 2.99 27.16 0.14 2.15 24.98 0.23 2.59 18.87 0.27 3.77
14.54 0.17 2.54 16.58 0.19 2.68 13.2 0.26 4.17 28.6 0.23 2.98 21.37 0.17 4.31
